Route 1: 93 5 20 22 24 27 29 30 6 32 33 34 36 35 37 38 39 28 26 23 19 14 25 18 17 16 12 15 13 9 11 10 21 8
Route 2: 63 67 74 72 62 61 64 66 69 68 65 49 55 54 53 56 58 60 59 57 40 44 46 45 51 52 41 42 50 47 43 48 96 87 90
Route 3: 75 2 1 99 100 97 92 94 95 98 7 3 89 4 88 91 84 86 83 82 85 71 76 70 73 80 79 81 78 77
Route 4: 31
Vehicles: 4
Distance: 795.68
